\ENCODING=ISO-8859-1
\Problem name: 

Minimize
 obj: 0 a_0_0m0_0#0 + 0 a_0_1m0_1#7 + 0 a_0_2m0_2#14 + 0 a_0_3m0_3#21
      + 0 a_0_4m0_4#28 + 0 a_0_5m0_5#35 + 504 a_0_0m1_1#37 + 5782 a_0_0m1_3#39
      + 6538 a_0_0m1_4#40 + 4130 a_0_0m1_5#41 + 504 a_0_1m1_0#42
      + 938 a_0_1m1_3#45 + 700 a_0_1m1_4#46 + 2142 a_0_2m1_5#53
      + 5782 a_0_3m1_0#54 + 938 a_0_3m1_1#55 + 2170 a_0_3m1_4#58
      + 6692 a_0_3m1_5#59 + 6538 a_0_4m1_0#60 + 700 a_0_4m1_1#61
      + 2170 a_0_4m1_3#63 + 4130 a_0_5m1_0#66 + 2142 a_0_5m1_2#68
      + 6692 a_0_5m1_3#69 + 1728 a_0_0m2_1#73 + 19824 a_0_0m2_3#75
      + 22416 a_0_0m2_4#76 + 14160 a_0_0m2_5#77 + 1728 a_0_1m2_0#78
      + 3216 a_0_1m2_3#81 + 2400 a_0_1m2_4#82 + 7344 a_0_2m2_5#89
      + 19824 a_0_3m2_0#90 + 3216 a_0_3m2_1#91 + 7440 a_0_3m2_4#94
      + 22944 a_0_3m2_5#95 + 22416 a_0_4m2_0#96 + 2400 a_0_4m2_1#97
      + 7440 a_0_4m2_3#99 + 14160 a_0_5m2_0#102 + 7344 a_0_5m2_2#104
      + 22944 a_0_5m2_3#105 + 504 a_1_0m0_1#109 + 5782 a_1_0m0_3#111
      + 6538 a_1_0m0_4#112 + 4130 a_1_0m0_5#113 + 504 a_1_1m0_0#114
      + 938 a_1_1m0_3#117 + 700 a_1_1m0_4#118 + 2142 a_1_2m0_5#125
      + 5782 a_1_3m0_0#126 + 938 a_1_3m0_1#127 + 2170 a_1_3m0_4#130
      + 6692 a_1_3m0_5#131 + 6538 a_1_4m0_0#132 + 700 a_1_4m0_1#133
      + 2170 a_1_4m0_3#135 + 4130 a_1_5m0_0#138 + 2142 a_1_5m0_2#140
      + 6692 a_1_5m0_3#141 + 0 a_1_0m1_0#144 + 0 a_1_1m1_1#151
      + 0 a_1_2m1_2#158 + 0 a_1_3m1_3#165 + 0 a_1_4m1_4#172 + 0 a_1_5m1_5#179
      + 864 a_1_0m2_1#181 + 9912 a_1_0m2_3#183 + 11208 a_1_0m2_4#184
      + 7080 a_1_0m2_5#185 + 864 a_1_1m2_0#186 + 1608 a_1_1m2_3#189
      + 1200 a_1_1m2_4#190 + 3672 a_1_2m2_5#197 + 9912 a_1_3m2_0#198
      + 1608 a_1_3m2_1#199 + 3720 a_1_3m2_4#202 + 11472 a_1_3m2_5#203
      + 11208 a_1_4m2_0#204 + 1200 a_1_4m2_1#205 + 3720 a_1_4m2_3#207
      + 7080 a_1_5m2_0#210 + 3672 a_1_5m2_2#212 + 11472 a_1_5m2_3#213
      + 1728 a_2_0m0_1#217 + 19824 a_2_0m0_3#219 + 22416 a_2_0m0_4#220
      + 14160 a_2_0m0_5#221 + 1728 a_2_1m0_0#222 + 3216 a_2_1m0_3#225
      + 2400 a_2_1m0_4#226 + 7344 a_2_2m0_5#233 + 19824 a_2_3m0_0#234
      + 3216 a_2_3m0_1#235 + 7440 a_2_3m0_4#238 + 22944 a_2_3m0_5#239
      + 22416 a_2_4m0_0#240 + 2400 a_2_4m0_1#241 + 7440 a_2_4m0_3#243
      + 14160 a_2_5m0_0#246 + 7344 a_2_5m0_2#248 + 22944 a_2_5m0_3#249
      + 864 a_2_0m1_1#253 + 9912 a_2_0m1_3#255 + 11208 a_2_0m1_4#256
      + 7080 a_2_0m1_5#257 + 864 a_2_1m1_0#258 + 1608 a_2_1m1_3#261
      + 1200 a_2_1m1_4#262 + 3672 a_2_2m1_5#269 + 9912 a_2_3m1_0#270
      + 1608 a_2_3m1_1#271 + 3720 a_2_3m1_4#274 + 11472 a_2_3m1_5#275
      + 11208 a_2_4m1_0#276 + 1200 a_2_4m1_1#277 + 3720 a_2_4m1_3#279
      + 7080 a_2_5m1_0#282 + 3672 a_2_5m1_2#284 + 11472 a_2_5m1_3#285
      + 0 a_2_0m2_0#288 + 0 a_2_1m2_1#295 + 0 a_2_2m2_2#302 + 0 a_2_3m2_3#309
      + 0 a_2_4m2_4#316 + 0 a_2_5m2_5#323
Subject To
 c1:   a_0_0#324 + a_1_0#330 + a_2_0#336  = 1
 c2:   a_0_1#325 + a_1_1#331 + a_2_1#337  = 1
 c3:   a_0_2#326 + a_1_2#332 + a_2_2#338  = 1
 c4:   a_0_3#327 + a_1_3#333 + a_2_3#339  = 1
 c5:   a_0_4#328 + a_1_4#334 + a_2_4#340  = 1
 c6:   a_0_5#329 + a_1_5#335 + a_2_5#341  = 1
 c7:   - a_0_0m1_0#36 + a_0_0#324 + a_1_0#330 <= 1
 c8:   - a_0_0m2_0#72 + a_0_0#324 + a_2_0#336 <= 1
 c9:   - a_1_0m0_0#108 + a_0_0#324 + a_1_0#330 <= 1
 c10:  - a_1_0m2_0#180 + a_1_0#330 + a_2_0#336 <= 1
 c11:  - a_2_0m0_0#216 + a_0_0#324 + a_2_0#336 <= 1
 c12:  - a_2_0m1_0#252 + a_1_0#330 + a_2_0#336 <= 1
 c13:  - a_0_0m0_1#1 + a_0_0#324 + a_0_1#325 <= 1
 c14:  - a_0_0m1_1#37 + a_0_0#324 + a_1_1#331 <= 1
 c15:  - a_0_0m2_1#73 + a_0_0#324 + a_2_1#337 <= 1
 c16:  - a_1_0m0_1#109 + a_0_1#325 + a_1_0#330 <= 1
 c17:  - a_1_0m1_1#145 + a_1_0#330 + a_1_1#331 <= 1
 c18:  - a_1_0m2_1#181 + a_1_0#330 + a_2_1#337 <= 1
 c19:  - a_2_0m0_1#217 + a_0_1#325 + a_2_0#336 <= 1
 c20:  - a_2_0m1_1#253 + a_1_1#331 + a_2_0#336 <= 1
 c21:  - a_2_0m2_1#289 + a_2_0#336 + a_2_1#337 <= 1
 c22:  - a_0_0m0_2#2 + a_0_0#324 + a_0_2#326 <= 1
 c23:  - a_0_0m1_2#38 + a_0_0#324 + a_1_2#332 <= 1
 c24:  - a_0_0m2_2#74 + a_0_0#324 + a_2_2#338 <= 1
 c25:  - a_1_0m0_2#110 + a_0_2#326 + a_1_0#330 <= 1
 c26:  - a_1_0m1_2#146 + a_1_0#330 + a_1_2#332 <= 1
 c27:  - a_1_0m2_2#182 + a_1_0#330 + a_2_2#338 <= 1
 c28:  - a_2_0m0_2#218 + a_0_2#326 + a_2_0#336 <= 1
 c29:  - a_2_0m1_2#254 + a_1_2#332 + a_2_0#336 <= 1
 c30:  - a_2_0m2_2#290 + a_2_0#336 + a_2_2#338 <= 1
 c31:  - a_0_0m0_3#3 + a_0_0#324 + a_0_3#327 <= 1
 c32:  - a_0_0m1_3#39 + a_0_0#324 + a_1_3#333 <= 1
 c33:  - a_0_0m2_3#75 + a_0_0#324 + a_2_3#339 <= 1
 c34:  - a_1_0m0_3#111 + a_0_3#327 + a_1_0#330 <= 1
 c35:  - a_1_0m1_3#147 + a_1_0#330 + a_1_3#333 <= 1
 c36:  - a_1_0m2_3#183 + a_1_0#330 + a_2_3#339 <= 1
 c37:  - a_2_0m0_3#219 + a_0_3#327 + a_2_0#336 <= 1
 c38:  - a_2_0m1_3#255 + a_1_3#333 + a_2_0#336 <= 1
 c39:  - a_2_0m2_3#291 + a_2_0#336 + a_2_3#339 <= 1
 c40:  - a_0_0m0_4#4 + a_0_0#324 + a_0_4#328 <= 1
 c41:  - a_0_0m1_4#40 + a_0_0#324 + a_1_4#334 <= 1
 c42:  - a_0_0m2_4#76 + a_0_0#324 + a_2_4#340 <= 1
 c43:  - a_1_0m0_4#112 + a_0_4#328 + a_1_0#330 <= 1
 c44:  - a_1_0m1_4#148 + a_1_0#330 + a_1_4#334 <= 1
 c45:  - a_1_0m2_4#184 + a_1_0#330 + a_2_4#340 <= 1
 c46:  - a_2_0m0_4#220 + a_0_4#328 + a_2_0#336 <= 1
 c47:  - a_2_0m1_4#256 + a_1_4#334 + a_2_0#336 <= 1
 c48:  - a_2_0m2_4#292 + a_2_0#336 + a_2_4#340 <= 1
 c49:  - a_0_0m0_5#5 + a_0_0#324 + a_0_5#329 <= 1
 c50:  - a_0_0m1_5#41 + a_0_0#324 + a_1_5#335 <= 1
 c51:  - a_0_0m2_5#77 + a_0_0#324 + a_2_5#341 <= 1
 c52:  - a_1_0m0_5#113 + a_0_5#329 + a_1_0#330 <= 1
 c53:  - a_1_0m1_5#149 + a_1_0#330 + a_1_5#335 <= 1
 c54:  - a_1_0m2_5#185 + a_1_0#330 + a_2_5#341 <= 1
 c55:  - a_2_0m0_5#221 + a_0_5#329 + a_2_0#336 <= 1
 c56:  - a_2_0m1_5#257 + a_1_5#335 + a_2_0#336 <= 1
 c57:  - a_2_0m2_5#293 + a_2_0#336 + a_2_5#341 <= 1
 c58:  - a_0_1m0_0#6 + a_0_0#324 + a_0_1#325 <= 1
 c59:  - a_0_1m1_0#42 + a_0_1#325 + a_1_0#330 <= 1
 c60:  - a_0_1m2_0#78 + a_0_1#325 + a_2_0#336 <= 1
 c61:  - a_1_1m0_0#114 + a_0_0#324 + a_1_1#331 <= 1
 c62:  - a_1_1m1_0#150 + a_1_0#330 + a_1_1#331 <= 1
 c63:  - a_1_1m2_0#186 + a_1_1#331 + a_2_0#336 <= 1
 c64:  - a_2_1m0_0#222 + a_0_0#324 + a_2_1#337 <= 1
 c65:  - a_2_1m1_0#258 + a_1_0#330 + a_2_1#337 <= 1
 c66:  - a_2_1m2_0#294 + a_2_0#336 + a_2_1#337 <= 1
 c67:  - a_0_1m1_1#43 + a_0_1#325 + a_1_1#331 <= 1
 c68:  - a_0_1m2_1#79 + a_0_1#325 + a_2_1#337 <= 1
 c69:  - a_1_1m0_1#115 + a_0_1#325 + a_1_1#331 <= 1
 c70:  - a_1_1m2_1#187 + a_1_1#331 + a_2_1#337 <= 1
 c71:  - a_2_1m0_1#223 + a_0_1#325 + a_2_1#337 <= 1
 c72:  - a_2_1m1_1#259 + a_1_1#331 + a_2_1#337 <= 1
 c73:  - a_0_1m0_2#8 + a_0_1#325 + a_0_2#326 <= 1
 c74:  - a_0_1m1_2#44 + a_0_1#325 + a_1_2#332 <= 1
 c75:  - a_0_1m2_2#80 + a_0_1#325 + a_2_2#338 <= 1
 c76:  - a_1_1m0_2#116 + a_0_2#326 + a_1_1#331 <= 1
 c77:  - a_1_1m1_2#152 + a_1_1#331 + a_1_2#332 <= 1
 c78:  - a_1_1m2_2#188 + a_1_1#331 + a_2_2#338 <= 1
 c79:  - a_2_1m0_2#224 + a_0_2#326 + a_2_1#337 <= 1
 c80:  - a_2_1m1_2#260 + a_1_2#332 + a_2_1#337 <= 1
 c81:  - a_2_1m2_2#296 + a_2_1#337 + a_2_2#338 <= 1
 c82:  - a_0_1m0_3#9 + a_0_1#325 + a_0_3#327 <= 1
 c83:  - a_0_1m1_3#45 + a_0_1#325 + a_1_3#333 <= 1
 c84:  - a_0_1m2_3#81 + a_0_1#325 + a_2_3#339 <= 1
 c85:  - a_1_1m0_3#117 + a_0_3#327 + a_1_1#331 <= 1
 c86:  - a_1_1m1_3#153 + a_1_1#331 + a_1_3#333 <= 1
 c87:  - a_1_1m2_3#189 + a_1_1#331 + a_2_3#339 <= 1
 c88:  - a_2_1m0_3#225 + a_0_3#327 + a_2_1#337 <= 1
 c89:  - a_2_1m1_3#261 + a_1_3#333 + a_2_1#337 <= 1
 c90:  - a_2_1m2_3#297 + a_2_1#337 + a_2_3#339 <= 1
 c91:  - a_0_1m0_4#10 + a_0_1#325 + a_0_4#328 <= 1
 c92:  - a_0_1m1_4#46 + a_0_1#325 + a_1_4#334 <= 1
 c93:  - a_0_1m2_4#82 + a_0_1#325 + a_2_4#340 <= 1
 c94:  - a_1_1m0_4#118 + a_0_4#328 + a_1_1#331 <= 1
 c95:  - a_1_1m1_4#154 + a_1_1#331 + a_1_4#334 <= 1
 c96:  - a_1_1m2_4#190 + a_1_1#331 + a_2_4#340 <= 1
 c97:  - a_2_1m0_4#226 + a_0_4#328 + a_2_1#337 <= 1
 c98:  - a_2_1m1_4#262 + a_1_4#334 + a_2_1#337 <= 1
 c99:  - a_2_1m2_4#298 + a_2_1#337 + a_2_4#340 <= 1
 c100: - a_0_1m0_5#11 + a_0_1#325 + a_0_5#329 <= 1
 c101: - a_0_1m1_5#47 + a_0_1#325 + a_1_5#335 <= 1
 c102: - a_0_1m2_5#83 + a_0_1#325 + a_2_5#341 <= 1
 c103: - a_1_1m0_5#119 + a_0_5#329 + a_1_1#331 <= 1
 c104: - a_1_1m1_5#155 + a_1_1#331 + a_1_5#335 <= 1
 c105: - a_1_1m2_5#191 + a_1_1#331 + a_2_5#341 <= 1
 c106: - a_2_1m0_5#227 + a_0_5#329 + a_2_1#337 <= 1
 c107: - a_2_1m1_5#263 + a_1_5#335 + a_2_1#337 <= 1
 c108: - a_2_1m2_5#299 + a_2_1#337 + a_2_5#341 <= 1
 c109: - a_0_2m0_0#12 + a_0_0#324 + a_0_2#326 <= 1
 c110: - a_0_2m1_0#48 + a_0_2#326 + a_1_0#330 <= 1
 c111: - a_0_2m2_0#84 + a_0_2#326 + a_2_0#336 <= 1
 c112: - a_1_2m0_0#120 + a_0_0#324 + a_1_2#332 <= 1
 c113: - a_1_2m1_0#156 + a_1_0#330 + a_1_2#332 <= 1
 c114: - a_1_2m2_0#192 + a_1_2#332 + a_2_0#336 <= 1
 c115: - a_2_2m0_0#228 + a_0_0#324 + a_2_2#338 <= 1
 c116: - a_2_2m1_0#264 + a_1_0#330 + a_2_2#338 <= 1
 c117: - a_2_2m2_0#300 + a_2_0#336 + a_2_2#338 <= 1
 c118: - a_0_2m0_1#13 + a_0_1#325 + a_0_2#326 <= 1
 c119: - a_0_2m1_1#49 + a_0_2#326 + a_1_1#331 <= 1
 c120: - a_0_2m2_1#85 + a_0_2#326 + a_2_1#337 <= 1
 c121: - a_1_2m0_1#121 + a_0_1#325 + a_1_2#332 <= 1
 c122: - a_1_2m1_1#157 + a_1_1#331 + a_1_2#332 <= 1
 c123: - a_1_2m2_1#193 + a_1_2#332 + a_2_1#337 <= 1
 c124: - a_2_2m0_1#229 + a_0_1#325 + a_2_2#338 <= 1
 c125: - a_2_2m1_1#265 + a_1_1#331 + a_2_2#338 <= 1
 c126: - a_2_2m2_1#301 + a_2_1#337 + a_2_2#338 <= 1
 c127: - a_0_2m1_2#50 + a_0_2#326 + a_1_2#332 <= 1
 c128: - a_0_2m2_2#86 + a_0_2#326 + a_2_2#338 <= 1
 c129: - a_1_2m0_2#122 + a_0_2#326 + a_1_2#332 <= 1
 c130: - a_1_2m2_2#194 + a_1_2#332 + a_2_2#338 <= 1
 c131: - a_2_2m0_2#230 + a_0_2#326 + a_2_2#338 <= 1
 c132: - a_2_2m1_2#266 + a_1_2#332 + a_2_2#338 <= 1
 c133: - a_0_2m0_3#15 + a_0_2#326 + a_0_3#327 <= 1
 c134: - a_0_2m1_3#51 + a_0_2#326 + a_1_3#333 <= 1
 c135: - a_0_2m2_3#87 + a_0_2#326 + a_2_3#339 <= 1
 c136: - a_1_2m0_3#123 + a_0_3#327 + a_1_2#332 <= 1
 c137: - a_1_2m1_3#159 + a_1_2#332 + a_1_3#333 <= 1
 c138: - a_1_2m2_3#195 + a_1_2#332 + a_2_3#339 <= 1
 c139: - a_2_2m0_3#231 + a_0_3#327 + a_2_2#338 <= 1
 c140: - a_2_2m1_3#267 + a_1_3#333 + a_2_2#338 <= 1
 c141: - a_2_2m2_3#303 + a_2_2#338 + a_2_3#339 <= 1
 c142: - a_0_2m0_4#16 + a_0_2#326 + a_0_4#328 <= 1
 c143: - a_0_2m1_4#52 + a_0_2#326 + a_1_4#334 <= 1
 c144: - a_0_2m2_4#88 + a_0_2#326 + a_2_4#340 <= 1
 c145: - a_1_2m0_4#124 + a_0_4#328 + a_1_2#332 <= 1
 c146: - a_1_2m1_4#160 + a_1_2#332 + a_1_4#334 <= 1
 c147: - a_1_2m2_4#196 + a_1_2#332 + a_2_4#340 <= 1
 c148: - a_2_2m0_4#232 + a_0_4#328 + a_2_2#338 <= 1
 c149: - a_2_2m1_4#268 + a_1_4#334 + a_2_2#338 <= 1
 c150: - a_2_2m2_4#304 + a_2_2#338 + a_2_4#340 <= 1
 c151: - a_0_2m0_5#17 + a_0_2#326 + a_0_5#329 <= 1
 c152: - a_0_2m1_5#53 + a_0_2#326 + a_1_5#335 <= 1
 c153: - a_0_2m2_5#89 + a_0_2#326 + a_2_5#341 <= 1
 c154: - a_1_2m0_5#125 + a_0_5#329 + a_1_2#332 <= 1
 c155: - a_1_2m1_5#161 + a_1_2#332 + a_1_5#335 <= 1
 c156: - a_1_2m2_5#197 + a_1_2#332 + a_2_5#341 <= 1
 c157: - a_2_2m0_5#233 + a_0_5#329 + a_2_2#338 <= 1
 c158: - a_2_2m1_5#269 + a_1_5#335 + a_2_2#338 <= 1
 c159: - a_2_2m2_5#305 + a_2_2#338 + a_2_5#341 <= 1
 c160: - a_0_3m0_0#18 + a_0_0#324 + a_0_3#327 <= 1
 c161: - a_0_3m1_0#54 + a_0_3#327 + a_1_0#330 <= 1
 c162: - a_0_3m2_0#90 + a_0_3#327 + a_2_0#336 <= 1
 c163: - a_1_3m0_0#126 + a_0_0#324 + a_1_3#333 <= 1
 c164: - a_1_3m1_0#162 + a_1_0#330 + a_1_3#333 <= 1
 c165: - a_1_3m2_0#198 + a_1_3#333 + a_2_0#336 <= 1
 c166: - a_2_3m0_0#234 + a_0_0#324 + a_2_3#339 <= 1
 c167: - a_2_3m1_0#270 + a_1_0#330 + a_2_3#339 <= 1
 c168: - a_2_3m2_0#306 + a_2_0#336 + a_2_3#339 <= 1
 c169: - a_0_3m0_1#19 + a_0_1#325 + a_0_3#327 <= 1
 c170: - a_0_3m1_1#55 + a_0_3#327 + a_1_1#331 <= 1
 c171: - a_0_3m2_1#91 + a_0_3#327 + a_2_1#337 <= 1
 c172: - a_1_3m0_1#127 + a_0_1#325 + a_1_3#333 <= 1
 c173: - a_1_3m1_1#163 + a_1_1#331 + a_1_3#333 <= 1
 c174: - a_1_3m2_1#199 + a_1_3#333 + a_2_1#337 <= 1
 c175: - a_2_3m0_1#235 + a_0_1#325 + a_2_3#339 <= 1
 c176: - a_2_3m1_1#271 + a_1_1#331 + a_2_3#339 <= 1
 c177: - a_2_3m2_1#307 + a_2_1#337 + a_2_3#339 <= 1
 c178: - a_0_3m0_2#20 + a_0_2#326 + a_0_3#327 <= 1
 c179: - a_0_3m1_2#56 + a_0_3#327 + a_1_2#332 <= 1
 c180: - a_0_3m2_2#92 + a_0_3#327 + a_2_2#338 <= 1
 c181: - a_1_3m0_2#128 + a_0_2#326 + a_1_3#333 <= 1
 c182: - a_1_3m1_2#164 + a_1_2#332 + a_1_3#333 <= 1
 c183: - a_1_3m2_2#200 + a_1_3#333 + a_2_2#338 <= 1
 c184: - a_2_3m0_2#236 + a_0_2#326 + a_2_3#339 <= 1
 c185: - a_2_3m1_2#272 + a_1_2#332 + a_2_3#339 <= 1
 c186: - a_2_3m2_2#308 + a_2_2#338 + a_2_3#339 <= 1
 c187: - a_0_3m1_3#57 + a_0_3#327 + a_1_3#333 <= 1
 c188: - a_0_3m2_3#93 + a_0_3#327 + a_2_3#339 <= 1
 c189: - a_1_3m0_3#129 + a_0_3#327 + a_1_3#333 <= 1
 c190: - a_1_3m2_3#201 + a_1_3#333 + a_2_3#339 <= 1
 c191: - a_2_3m0_3#237 + a_0_3#327 + a_2_3#339 <= 1
 c192: - a_2_3m1_3#273 + a_1_3#333 + a_2_3#339 <= 1
 c193: - a_0_3m0_4#22 + a_0_3#327 + a_0_4#328 <= 1
 c194: - a_0_3m1_4#58 + a_0_3#327 + a_1_4#334 <= 1
 c195: - a_0_3m2_4#94 + a_0_3#327 + a_2_4#340 <= 1
 c196: - a_1_3m0_4#130 + a_0_4#328 + a_1_3#333 <= 1
 c197: - a_1_3m1_4#166 + a_1_3#333 + a_1_4#334 <= 1
 c198: - a_1_3m2_4#202 + a_1_3#333 + a_2_4#340 <= 1
 c199: - a_2_3m0_4#238 + a_0_4#328 + a_2_3#339 <= 1
 c200: - a_2_3m1_4#274 + a_1_4#334 + a_2_3#339 <= 1
 c201: - a_2_3m2_4#310 + a_2_3#339 + a_2_4#340 <= 1
 c202: - a_0_3m0_5#23 + a_0_3#327 + a_0_5#329 <= 1
 c203: - a_0_3m1_5#59 + a_0_3#327 + a_1_5#335 <= 1
 c204: - a_0_3m2_5#95 + a_0_3#327 + a_2_5#341 <= 1
 c205: - a_1_3m0_5#131 + a_0_5#329 + a_1_3#333 <= 1
 c206: - a_1_3m1_5#167 + a_1_3#333 + a_1_5#335 <= 1
 c207: - a_1_3m2_5#203 + a_1_3#333 + a_2_5#341 <= 1
 c208: - a_2_3m0_5#239 + a_0_5#329 + a_2_3#339 <= 1
 c209: - a_2_3m1_5#275 + a_1_5#335 + a_2_3#339 <= 1
 c210: - a_2_3m2_5#311 + a_2_3#339 + a_2_5#341 <= 1
 c211: - a_0_4m0_0#24 + a_0_0#324 + a_0_4#328 <= 1
 c212: - a_0_4m1_0#60 + a_0_4#328 + a_1_0#330 <= 1
 c213: - a_0_4m2_0#96 + a_0_4#328 + a_2_0#336 <= 1
 c214: - a_1_4m0_0#132 + a_0_0#324 + a_1_4#334 <= 1
 c215: - a_1_4m1_0#168 + a_1_0#330 + a_1_4#334 <= 1
 c216: - a_1_4m2_0#204 + a_1_4#334 + a_2_0#336 <= 1
 c217: - a_2_4m0_0#240 + a_0_0#324 + a_2_4#340 <= 1
 c218: - a_2_4m1_0#276 + a_1_0#330 + a_2_4#340 <= 1
 c219: - a_2_4m2_0#312 + a_2_0#336 + a_2_4#340 <= 1
 c220: - a_0_4m0_1#25 + a_0_1#325 + a_0_4#328 <= 1
 c221: - a_0_4m1_1#61 + a_0_4#328 + a_1_1#331 <= 1
 c222: - a_0_4m2_1#97 + a_0_4#328 + a_2_1#337 <= 1
 c223: - a_1_4m0_1#133 + a_0_1#325 + a_1_4#334 <= 1
 c224: - a_1_4m1_1#169 + a_1_1#331 + a_1_4#334 <= 1
 c225: - a_1_4m2_1#205 + a_1_4#334 + a_2_1#337 <= 1
 c226: - a_2_4m0_1#241 + a_0_1#325 + a_2_4#340 <= 1
 c227: - a_2_4m1_1#277 + a_1_1#331 + a_2_4#340 <= 1
 c228: - a_2_4m2_1#313 + a_2_1#337 + a_2_4#340 <= 1
 c229: - a_0_4m0_2#26 + a_0_2#326 + a_0_4#328 <= 1
 c230: - a_0_4m1_2#62 + a_0_4#328 + a_1_2#332 <= 1
 c231: - a_0_4m2_2#98 + a_0_4#328 + a_2_2#338 <= 1
 c232: - a_1_4m0_2#134 + a_0_2#326 + a_1_4#334 <= 1
 c233: - a_1_4m1_2#170 + a_1_2#332 + a_1_4#334 <= 1
 c234: - a_1_4m2_2#206 + a_1_4#334 + a_2_2#338 <= 1
 c235: - a_2_4m0_2#242 + a_0_2#326 + a_2_4#340 <= 1
 c236: - a_2_4m1_2#278 + a_1_2#332 + a_2_4#340 <= 1
 c237: - a_2_4m2_2#314 + a_2_2#338 + a_2_4#340 <= 1
 c238: - a_0_4m0_3#27 + a_0_3#327 + a_0_4#328 <= 1
 c239: - a_0_4m1_3#63 + a_0_4#328 + a_1_3#333 <= 1
 c240: - a_0_4m2_3#99 + a_0_4#328 + a_2_3#339 <= 1
 c241: - a_1_4m0_3#135 + a_0_3#327 + a_1_4#334 <= 1
 c242: - a_1_4m1_3#171 + a_1_3#333 + a_1_4#334 <= 1
 c243: - a_1_4m2_3#207 + a_1_4#334 + a_2_3#339 <= 1
 c244: - a_2_4m0_3#243 + a_0_3#327 + a_2_4#340 <= 1
 c245: - a_2_4m1_3#279 + a_1_3#333 + a_2_4#340 <= 1
 c246: - a_2_4m2_3#315 + a_2_3#339 + a_2_4#340 <= 1
 c247: - a_0_4m1_4#64 + a_0_4#328 + a_1_4#334 <= 1
 c248: - a_0_4m2_4#100 + a_0_4#328 + a_2_4#340 <= 1
 c249: - a_1_4m0_4#136 + a_0_4#328 + a_1_4#334 <= 1
 c250: - a_1_4m2_4#208 + a_1_4#334 + a_2_4#340 <= 1
 c251: - a_2_4m0_4#244 + a_0_4#328 + a_2_4#340 <= 1
 c252: - a_2_4m1_4#280 + a_1_4#334 + a_2_4#340 <= 1
 c253: - a_0_4m0_5#29 + a_0_4#328 + a_0_5#329 <= 1
 c254: - a_0_4m1_5#65 + a_0_4#328 + a_1_5#335 <= 1
 c255: - a_0_4m2_5#101 + a_0_4#328 + a_2_5#341 <= 1
 c256: - a_1_4m0_5#137 + a_0_5#329 + a_1_4#334 <= 1
 c257: - a_1_4m1_5#173 + a_1_4#334 + a_1_5#335 <= 1
 c258: - a_1_4m2_5#209 + a_1_4#334 + a_2_5#341 <= 1
 c259: - a_2_4m0_5#245 + a_0_5#329 + a_2_4#340 <= 1
 c260: - a_2_4m1_5#281 + a_1_5#335 + a_2_4#340 <= 1
 c261: - a_2_4m2_5#317 + a_2_4#340 + a_2_5#341 <= 1
 c262: - a_0_5m0_0#30 + a_0_0#324 + a_0_5#329 <= 1
 c263: - a_0_5m1_0#66 + a_0_5#329 + a_1_0#330 <= 1
 c264: - a_0_5m2_0#102 + a_0_5#329 + a_2_0#336 <= 1
 c265: - a_1_5m0_0#138 + a_0_0#324 + a_1_5#335 <= 1
 c266: - a_1_5m1_0#174 + a_1_0#330 + a_1_5#335 <= 1
 c267: - a_1_5m2_0#210 + a_1_5#335 + a_2_0#336 <= 1
 c268: - a_2_5m0_0#246 + a_0_0#324 + a_2_5#341 <= 1
 c269: - a_2_5m1_0#282 + a_1_0#330 + a_2_5#341 <= 1
 c270: - a_2_5m2_0#318 + a_2_0#336 + a_2_5#341 <= 1
 c271: - a_0_5m0_1#31 + a_0_1#325 + a_0_5#329 <= 1
 c272: - a_0_5m1_1#67 + a_0_5#329 + a_1_1#331 <= 1
 c273: - a_0_5m2_1#103 + a_0_5#329 + a_2_1#337 <= 1
 c274: - a_1_5m0_1#139 + a_0_1#325 + a_1_5#335 <= 1
 c275: - a_1_5m1_1#175 + a_1_1#331 + a_1_5#335 <= 1
 c276: - a_1_5m2_1#211 + a_1_5#335 + a_2_1#337 <= 1
 c277: - a_2_5m0_1#247 + a_0_1#325 + a_2_5#341 <= 1
 c278: - a_2_5m1_1#283 + a_1_1#331 + a_2_5#341 <= 1
 c279: - a_2_5m2_1#319 + a_2_1#337 + a_2_5#341 <= 1
 c280: - a_0_5m0_2#32 + a_0_2#326 + a_0_5#329 <= 1
 c281: - a_0_5m1_2#68 + a_0_5#329 + a_1_2#332 <= 1
 c282: - a_0_5m2_2#104 + a_0_5#329 + a_2_2#338 <= 1
 c283: - a_1_5m0_2#140 + a_0_2#326 + a_1_5#335 <= 1
 c284: - a_1_5m1_2#176 + a_1_2#332 + a_1_5#335 <= 1
 c285: - a_1_5m2_2#212 + a_1_5#335 + a_2_2#338 <= 1
 c286: - a_2_5m0_2#248 + a_0_2#326 + a_2_5#341 <= 1
 c287: - a_2_5m1_2#284 + a_1_2#332 + a_2_5#341 <= 1
 c288: - a_2_5m2_2#320 + a_2_2#338 + a_2_5#341 <= 1
 c289: - a_0_5m0_3#33 + a_0_3#327 + a_0_5#329 <= 1
 c290: - a_0_5m1_3#69 + a_0_5#329 + a_1_3#333 <= 1
 c291: - a_0_5m2_3#105 + a_0_5#329 + a_2_3#339 <= 1
 c292: - a_1_5m0_3#141 + a_0_3#327 + a_1_5#335 <= 1
 c293: - a_1_5m1_3#177 + a_1_3#333 + a_1_5#335 <= 1
 c294: - a_1_5m2_3#213 + a_1_5#335 + a_2_3#339 <= 1
 c295: - a_2_5m0_3#249 + a_0_3#327 + a_2_5#341 <= 1
 c296: - a_2_5m1_3#285 + a_1_3#333 + a_2_5#341 <= 1
 c297: - a_2_5m2_3#321 + a_2_3#339 + a_2_5#341 <= 1
 c298: - a_0_5m0_4#34 + a_0_4#328 + a_0_5#329 <= 1
 c299: - a_0_5m1_4#70 + a_0_5#329 + a_1_4#334 <= 1
 c300: - a_0_5m2_4#106 + a_0_5#329 + a_2_4#340 <= 1
 c301: - a_1_5m0_4#142 + a_0_4#328 + a_1_5#335 <= 1
 c302: - a_1_5m1_4#178 + a_1_4#334 + a_1_5#335 <= 1
 c303: - a_1_5m2_4#214 + a_1_5#335 + a_2_4#340 <= 1
 c304: - a_2_5m0_4#250 + a_0_4#328 + a_2_5#341 <= 1
 c305: - a_2_5m1_4#286 + a_1_4#334 + a_2_5#341 <= 1
 c306: - a_2_5m2_4#322 + a_2_4#340 + a_2_5#341 <= 1
 c307: - a_0_5m1_5#71 + a_0_5#329 + a_1_5#335 <= 1
 c308: - a_0_5m2_5#107 + a_0_5#329 + a_2_5#341 <= 1
 c309: - a_1_5m0_5#143 + a_0_5#329 + a_1_5#335 <= 1
 c310: - a_1_5m2_5#215 + a_1_5#335 + a_2_5#341 <= 1
 c311: - a_2_5m0_5#251 + a_0_5#329 + a_2_5#341 <= 1
 c312: - a_2_5m1_5#287 + a_1_5#335 + a_2_5#341 <= 1
 c313: 869 a_0_0#324 + 77 a_0_1#325 + 341 a_0_2#326 + 987 a_0_3#327
       + 293 a_0_4#328 + 80 a_0_5#329 <= 2031
 c314: 869 a_1_0#330 + 77 a_1_1#331 + 341 a_1_2#332 + 987 a_1_3#333
       + 293 a_1_4#334 + 80 a_1_5#335 <= 2653
 c315: 869 a_2_0#336 + 77 a_2_1#337 + 341 a_2_2#338 + 987 a_2_3#339
       + 293 a_2_4#340 + 80 a_2_5#341 <= 2492
Bounds
 0 <= a_0_0m0_0#0 <= 1
 0 <= a_0_0m0_1#1 <= 1
 0 <= a_0_0m0_2#2 <= 1
 0 <= a_0_0m0_3#3 <= 1
 0 <= a_0_0m0_4#4 <= 1
 0 <= a_0_0m0_5#5 <= 1
 0 <= a_0_1m0_0#6 <= 1
 0 <= a_0_1m0_1#7 <= 1
 0 <= a_0_1m0_2#8 <= 1
 0 <= a_0_1m0_3#9 <= 1
 0 <= a_0_1m0_4#10 <= 1
 0 <= a_0_1m0_5#11 <= 1
 0 <= a_0_2m0_0#12 <= 1
 0 <= a_0_2m0_1#13 <= 1
 0 <= a_0_2m0_2#14 <= 1
 0 <= a_0_2m0_3#15 <= 1
 0 <= a_0_2m0_4#16 <= 1
 0 <= a_0_2m0_5#17 <= 1
 0 <= a_0_3m0_0#18 <= 1
 0 <= a_0_3m0_1#19 <= 1
 0 <= a_0_3m0_2#20 <= 1
 0 <= a_0_3m0_3#21 <= 1
 0 <= a_0_3m0_4#22 <= 1
 0 <= a_0_3m0_5#23 <= 1
 0 <= a_0_4m0_0#24 <= 1
 0 <= a_0_4m0_1#25 <= 1
 0 <= a_0_4m0_2#26 <= 1
 0 <= a_0_4m0_3#27 <= 1
 0 <= a_0_4m0_4#28 <= 1
 0 <= a_0_4m0_5#29 <= 1
 0 <= a_0_5m0_0#30 <= 1
 0 <= a_0_5m0_1#31 <= 1
 0 <= a_0_5m0_2#32 <= 1
 0 <= a_0_5m0_3#33 <= 1
 0 <= a_0_5m0_4#34 <= 1
 0 <= a_0_5m0_5#35 <= 1
 0 <= a_0_0m1_0#36 <= 1
 0 <= a_0_0m1_1#37 <= 1
 0 <= a_0_0m1_2#38 <= 1
 0 <= a_0_0m1_3#39 <= 1
 0 <= a_0_0m1_4#40 <= 1
 0 <= a_0_0m1_5#41 <= 1
 0 <= a_0_1m1_0#42 <= 1
 0 <= a_0_1m1_1#43 <= 1
 0 <= a_0_1m1_2#44 <= 1
 0 <= a_0_1m1_3#45 <= 1
 0 <= a_0_1m1_4#46 <= 1
 0 <= a_0_1m1_5#47 <= 1
 0 <= a_0_2m1_0#48 <= 1
 0 <= a_0_2m1_1#49 <= 1
 0 <= a_0_2m1_2#50 <= 1
 0 <= a_0_2m1_3#51 <= 1
 0 <= a_0_2m1_4#52 <= 1
 0 <= a_0_2m1_5#53 <= 1
 0 <= a_0_3m1_0#54 <= 1
 0 <= a_0_3m1_1#55 <= 1
 0 <= a_0_3m1_2#56 <= 1
 0 <= a_0_3m1_3#57 <= 1
 0 <= a_0_3m1_4#58 <= 1
 0 <= a_0_3m1_5#59 <= 1
 0 <= a_0_4m1_0#60 <= 1
 0 <= a_0_4m1_1#61 <= 1
 0 <= a_0_4m1_2#62 <= 1
 0 <= a_0_4m1_3#63 <= 1
 0 <= a_0_4m1_4#64 <= 1
 0 <= a_0_4m1_5#65 <= 1
 0 <= a_0_5m1_0#66 <= 1
 0 <= a_0_5m1_1#67 <= 1
 0 <= a_0_5m1_2#68 <= 1
 0 <= a_0_5m1_3#69 <= 1
 0 <= a_0_5m1_4#70 <= 1
 0 <= a_0_5m1_5#71 <= 1
 0 <= a_0_0m2_0#72 <= 1
 0 <= a_0_0m2_1#73 <= 1
 0 <= a_0_0m2_2#74 <= 1
 0 <= a_0_0m2_3#75 <= 1
 0 <= a_0_0m2_4#76 <= 1
 0 <= a_0_0m2_5#77 <= 1
 0 <= a_0_1m2_0#78 <= 1
 0 <= a_0_1m2_1#79 <= 1
 0 <= a_0_1m2_2#80 <= 1
 0 <= a_0_1m2_3#81 <= 1
 0 <= a_0_1m2_4#82 <= 1
 0 <= a_0_1m2_5#83 <= 1
 0 <= a_0_2m2_0#84 <= 1
 0 <= a_0_2m2_1#85 <= 1
 0 <= a_0_2m2_2#86 <= 1
 0 <= a_0_2m2_3#87 <= 1
 0 <= a_0_2m2_4#88 <= 1
 0 <= a_0_2m2_5#89 <= 1
 0 <= a_0_3m2_0#90 <= 1
 0 <= a_0_3m2_1#91 <= 1
 0 <= a_0_3m2_2#92 <= 1
 0 <= a_0_3m2_3#93 <= 1
 0 <= a_0_3m2_4#94 <= 1
 0 <= a_0_3m2_5#95 <= 1
 0 <= a_0_4m2_0#96 <= 1
 0 <= a_0_4m2_1#97 <= 1
 0 <= a_0_4m2_2#98 <= 1
 0 <= a_0_4m2_3#99 <= 1
 0 <= a_0_4m2_4#100 <= 1
 0 <= a_0_4m2_5#101 <= 1
 0 <= a_0_5m2_0#102 <= 1
 0 <= a_0_5m2_1#103 <= 1
 0 <= a_0_5m2_2#104 <= 1
 0 <= a_0_5m2_3#105 <= 1
 0 <= a_0_5m2_4#106 <= 1
 0 <= a_0_5m2_5#107 <= 1
 0 <= a_1_0m0_0#108 <= 1
 0 <= a_1_0m0_1#109 <= 1
 0 <= a_1_0m0_2#110 <= 1
 0 <= a_1_0m0_3#111 <= 1
 0 <= a_1_0m0_4#112 <= 1
 0 <= a_1_0m0_5#113 <= 1
 0 <= a_1_1m0_0#114 <= 1
 0 <= a_1_1m0_1#115 <= 1
 0 <= a_1_1m0_2#116 <= 1
 0 <= a_1_1m0_3#117 <= 1
 0 <= a_1_1m0_4#118 <= 1
 0 <= a_1_1m0_5#119 <= 1
 0 <= a_1_2m0_0#120 <= 1
 0 <= a_1_2m0_1#121 <= 1
 0 <= a_1_2m0_2#122 <= 1
 0 <= a_1_2m0_3#123 <= 1
 0 <= a_1_2m0_4#124 <= 1
 0 <= a_1_2m0_5#125 <= 1
 0 <= a_1_3m0_0#126 <= 1
 0 <= a_1_3m0_1#127 <= 1
 0 <= a_1_3m0_2#128 <= 1
 0 <= a_1_3m0_3#129 <= 1
 0 <= a_1_3m0_4#130 <= 1
 0 <= a_1_3m0_5#131 <= 1
 0 <= a_1_4m0_0#132 <= 1
 0 <= a_1_4m0_1#133 <= 1
 0 <= a_1_4m0_2#134 <= 1
 0 <= a_1_4m0_3#135 <= 1
 0 <= a_1_4m0_4#136 <= 1
 0 <= a_1_4m0_5#137 <= 1
 0 <= a_1_5m0_0#138 <= 1
 0 <= a_1_5m0_1#139 <= 1
 0 <= a_1_5m0_2#140 <= 1
 0 <= a_1_5m0_3#141 <= 1
 0 <= a_1_5m0_4#142 <= 1
 0 <= a_1_5m0_5#143 <= 1
 0 <= a_1_0m1_0#144 <= 1
 0 <= a_1_0m1_1#145 <= 1
 0 <= a_1_0m1_2#146 <= 1
 0 <= a_1_0m1_3#147 <= 1
 0 <= a_1_0m1_4#148 <= 1
 0 <= a_1_0m1_5#149 <= 1
 0 <= a_1_1m1_0#150 <= 1
 0 <= a_1_1m1_1#151 <= 1
 0 <= a_1_1m1_2#152 <= 1
 0 <= a_1_1m1_3#153 <= 1
 0 <= a_1_1m1_4#154 <= 1
 0 <= a_1_1m1_5#155 <= 1
 0 <= a_1_2m1_0#156 <= 1
 0 <= a_1_2m1_1#157 <= 1
 0 <= a_1_2m1_2#158 <= 1
 0 <= a_1_2m1_3#159 <= 1
 0 <= a_1_2m1_4#160 <= 1
 0 <= a_1_2m1_5#161 <= 1
 0 <= a_1_3m1_0#162 <= 1
 0 <= a_1_3m1_1#163 <= 1
 0 <= a_1_3m1_2#164 <= 1
 0 <= a_1_3m1_3#165 <= 1
 0 <= a_1_3m1_4#166 <= 1
 0 <= a_1_3m1_5#167 <= 1
 0 <= a_1_4m1_0#168 <= 1
 0 <= a_1_4m1_1#169 <= 1
 0 <= a_1_4m1_2#170 <= 1
 0 <= a_1_4m1_3#171 <= 1
 0 <= a_1_4m1_4#172 <= 1
 0 <= a_1_4m1_5#173 <= 1
 0 <= a_1_5m1_0#174 <= 1
 0 <= a_1_5m1_1#175 <= 1
 0 <= a_1_5m1_2#176 <= 1
 0 <= a_1_5m1_3#177 <= 1
 0 <= a_1_5m1_4#178 <= 1
 0 <= a_1_5m1_5#179 <= 1
 0 <= a_1_0m2_0#180 <= 1
 0 <= a_1_0m2_1#181 <= 1
 0 <= a_1_0m2_2#182 <= 1
 0 <= a_1_0m2_3#183 <= 1
 0 <= a_1_0m2_4#184 <= 1
 0 <= a_1_0m2_5#185 <= 1
 0 <= a_1_1m2_0#186 <= 1
 0 <= a_1_1m2_1#187 <= 1
 0 <= a_1_1m2_2#188 <= 1
 0 <= a_1_1m2_3#189 <= 1
 0 <= a_1_1m2_4#190 <= 1
 0 <= a_1_1m2_5#191 <= 1
 0 <= a_1_2m2_0#192 <= 1
 0 <= a_1_2m2_1#193 <= 1
 0 <= a_1_2m2_2#194 <= 1
 0 <= a_1_2m2_3#195 <= 1
 0 <= a_1_2m2_4#196 <= 1
 0 <= a_1_2m2_5#197 <= 1
 0 <= a_1_3m2_0#198 <= 1
 0 <= a_1_3m2_1#199 <= 1
 0 <= a_1_3m2_2#200 <= 1
 0 <= a_1_3m2_3#201 <= 1
 0 <= a_1_3m2_4#202 <= 1
 0 <= a_1_3m2_5#203 <= 1
 0 <= a_1_4m2_0#204 <= 1
 0 <= a_1_4m2_1#205 <= 1
 0 <= a_1_4m2_2#206 <= 1
 0 <= a_1_4m2_3#207 <= 1
 0 <= a_1_4m2_4#208 <= 1
 0 <= a_1_4m2_5#209 <= 1
 0 <= a_1_5m2_0#210 <= 1
 0 <= a_1_5m2_1#211 <= 1
 0 <= a_1_5m2_2#212 <= 1
 0 <= a_1_5m2_3#213 <= 1
 0 <= a_1_5m2_4#214 <= 1
 0 <= a_1_5m2_5#215 <= 1
 0 <= a_2_0m0_0#216 <= 1
 0 <= a_2_0m0_1#217 <= 1
 0 <= a_2_0m0_2#218 <= 1
 0 <= a_2_0m0_3#219 <= 1
 0 <= a_2_0m0_4#220 <= 1
 0 <= a_2_0m0_5#221 <= 1
 0 <= a_2_1m0_0#222 <= 1
 0 <= a_2_1m0_1#223 <= 1
 0 <= a_2_1m0_2#224 <= 1
 0 <= a_2_1m0_3#225 <= 1
 0 <= a_2_1m0_4#226 <= 1
 0 <= a_2_1m0_5#227 <= 1
 0 <= a_2_2m0_0#228 <= 1
 0 <= a_2_2m0_1#229 <= 1
 0 <= a_2_2m0_2#230 <= 1
 0 <= a_2_2m0_3#231 <= 1
 0 <= a_2_2m0_4#232 <= 1
 0 <= a_2_2m0_5#233 <= 1
 0 <= a_2_3m0_0#234 <= 1
 0 <= a_2_3m0_1#235 <= 1
 0 <= a_2_3m0_2#236 <= 1
 0 <= a_2_3m0_3#237 <= 1
 0 <= a_2_3m0_4#238 <= 1
 0 <= a_2_3m0_5#239 <= 1
 0 <= a_2_4m0_0#240 <= 1
 0 <= a_2_4m0_1#241 <= 1
 0 <= a_2_4m0_2#242 <= 1
 0 <= a_2_4m0_3#243 <= 1
 0 <= a_2_4m0_4#244 <= 1
 0 <= a_2_4m0_5#245 <= 1
 0 <= a_2_5m0_0#246 <= 1
 0 <= a_2_5m0_1#247 <= 1
 0 <= a_2_5m0_2#248 <= 1
 0 <= a_2_5m0_3#249 <= 1
 0 <= a_2_5m0_4#250 <= 1
 0 <= a_2_5m0_5#251 <= 1
 0 <= a_2_0m1_0#252 <= 1
 0 <= a_2_0m1_1#253 <= 1
 0 <= a_2_0m1_2#254 <= 1
 0 <= a_2_0m1_3#255 <= 1
 0 <= a_2_0m1_4#256 <= 1
 0 <= a_2_0m1_5#257 <= 1
 0 <= a_2_1m1_0#258 <= 1
 0 <= a_2_1m1_1#259 <= 1
 0 <= a_2_1m1_2#260 <= 1
 0 <= a_2_1m1_3#261 <= 1
 0 <= a_2_1m1_4#262 <= 1
 0 <= a_2_1m1_5#263 <= 1
 0 <= a_2_2m1_0#264 <= 1
 0 <= a_2_2m1_1#265 <= 1
 0 <= a_2_2m1_2#266 <= 1
 0 <= a_2_2m1_3#267 <= 1
 0 <= a_2_2m1_4#268 <= 1
 0 <= a_2_2m1_5#269 <= 1
 0 <= a_2_3m1_0#270 <= 1
 0 <= a_2_3m1_1#271 <= 1
 0 <= a_2_3m1_2#272 <= 1
 0 <= a_2_3m1_3#273 <= 1
 0 <= a_2_3m1_4#274 <= 1
 0 <= a_2_3m1_5#275 <= 1
 0 <= a_2_4m1_0#276 <= 1
 0 <= a_2_4m1_1#277 <= 1
 0 <= a_2_4m1_2#278 <= 1
 0 <= a_2_4m1_3#279 <= 1
 0 <= a_2_4m1_4#280 <= 1
 0 <= a_2_4m1_5#281 <= 1
 0 <= a_2_5m1_0#282 <= 1
 0 <= a_2_5m1_1#283 <= 1
 0 <= a_2_5m1_2#284 <= 1
 0 <= a_2_5m1_3#285 <= 1
 0 <= a_2_5m1_4#286 <= 1
 0 <= a_2_5m1_5#287 <= 1
 0 <= a_2_0m2_0#288 <= 1
 0 <= a_2_0m2_1#289 <= 1
 0 <= a_2_0m2_2#290 <= 1
 0 <= a_2_0m2_3#291 <= 1
 0 <= a_2_0m2_4#292 <= 1
 0 <= a_2_0m2_5#293 <= 1
 0 <= a_2_1m2_0#294 <= 1
 0 <= a_2_1m2_1#295 <= 1
 0 <= a_2_1m2_2#296 <= 1
 0 <= a_2_1m2_3#297 <= 1
 0 <= a_2_1m2_4#298 <= 1
 0 <= a_2_1m2_5#299 <= 1
 0 <= a_2_2m2_0#300 <= 1
 0 <= a_2_2m2_1#301 <= 1
 0 <= a_2_2m2_2#302 <= 1
 0 <= a_2_2m2_3#303 <= 1
 0 <= a_2_2m2_4#304 <= 1
 0 <= a_2_2m2_5#305 <= 1
 0 <= a_2_3m2_0#306 <= 1
 0 <= a_2_3m2_1#307 <= 1
 0 <= a_2_3m2_2#308 <= 1
 0 <= a_2_3m2_3#309 <= 1
 0 <= a_2_3m2_4#310 <= 1
 0 <= a_2_3m2_5#311 <= 1
 0 <= a_2_4m2_0#312 <= 1
 0 <= a_2_4m2_1#313 <= 1
 0 <= a_2_4m2_2#314 <= 1
 0 <= a_2_4m2_3#315 <= 1
 0 <= a_2_4m2_4#316 <= 1
 0 <= a_2_4m2_5#317 <= 1
 0 <= a_2_5m2_0#318 <= 1
 0 <= a_2_5m2_1#319 <= 1
 0 <= a_2_5m2_2#320 <= 1
 0 <= a_2_5m2_3#321 <= 1
 0 <= a_2_5m2_4#322 <= 1
 0 <= a_2_5m2_5#323 <= 1
 0 <= a_0_0#324 <= 1
 0 <= a_0_1#325 <= 1
 0 <= a_0_2#326 <= 1
 0 <= a_0_3#327 <= 1
 0 <= a_0_4#328 <= 1
 0 <= a_0_5#329 <= 1
 0 <= a_1_0#330 <= 1
 0 <= a_1_1#331 <= 1
 0 <= a_1_2#332 <= 1
 0 <= a_1_3#333 <= 1
 0 <= a_1_4#334 <= 1
 0 <= a_1_5#335 <= 1
 0 <= a_2_0#336 <= 1
 0 <= a_2_1#337 <= 1
 0 <= a_2_2#338 <= 1
 0 <= a_2_3#339 <= 1
 0 <= a_2_4#340 <= 1
 0 <= a_2_5#341 <= 1
Binaries
 a_0_0m0_0#0  a_0_0m0_1#1  a_0_0m0_2#2  a_0_0m0_3#3  a_0_0m0_4#4  a_0_0m0_5#5 
 a_0_1m0_0#6  a_0_1m0_1#7  a_0_1m0_2#8  a_0_1m0_3#9  a_0_1m0_4#10 
 a_0_1m0_5#11  a_0_2m0_0#12  a_0_2m0_1#13  a_0_2m0_2#14  a_0_2m0_3#15 
 a_0_2m0_4#16  a_0_2m0_5#17  a_0_3m0_0#18  a_0_3m0_1#19  a_0_3m0_2#20 
 a_0_3m0_3#21  a_0_3m0_4#22  a_0_3m0_5#23  a_0_4m0_0#24  a_0_4m0_1#25 
 a_0_4m0_2#26  a_0_4m0_3#27  a_0_4m0_4#28  a_0_4m0_5#29  a_0_5m0_0#30 
 a_0_5m0_1#31  a_0_5m0_2#32  a_0_5m0_3#33  a_0_5m0_4#34  a_0_5m0_5#35 
 a_0_0m1_0#36  a_0_0m1_1#37  a_0_0m1_2#38  a_0_0m1_3#39  a_0_0m1_4#40 
 a_0_0m1_5#41  a_0_1m1_0#42  a_0_1m1_1#43  a_0_1m1_2#44  a_0_1m1_3#45 
 a_0_1m1_4#46  a_0_1m1_5#47  a_0_2m1_0#48  a_0_2m1_1#49  a_0_2m1_2#50 
 a_0_2m1_3#51  a_0_2m1_4#52  a_0_2m1_5#53  a_0_3m1_0#54  a_0_3m1_1#55 
 a_0_3m1_2#56  a_0_3m1_3#57  a_0_3m1_4#58  a_0_3m1_5#59  a_0_4m1_0#60 
 a_0_4m1_1#61  a_0_4m1_2#62  a_0_4m1_3#63  a_0_4m1_4#64  a_0_4m1_5#65 
 a_0_5m1_0#66  a_0_5m1_1#67  a_0_5m1_2#68  a_0_5m1_3#69  a_0_5m1_4#70 
 a_0_5m1_5#71  a_0_0m2_0#72  a_0_0m2_1#73  a_0_0m2_2#74  a_0_0m2_3#75 
 a_0_0m2_4#76  a_0_0m2_5#77  a_0_1m2_0#78  a_0_1m2_1#79  a_0_1m2_2#80 
 a_0_1m2_3#81  a_0_1m2_4#82  a_0_1m2_5#83  a_0_2m2_0#84  a_0_2m2_1#85 
 a_0_2m2_2#86  a_0_2m2_3#87  a_0_2m2_4#88  a_0_2m2_5#89  a_0_3m2_0#90 
 a_0_3m2_1#91  a_0_3m2_2#92  a_0_3m2_3#93  a_0_3m2_4#94  a_0_3m2_5#95 
 a_0_4m2_0#96  a_0_4m2_1#97  a_0_4m2_2#98  a_0_4m2_3#99  a_0_4m2_4#100 
 a_0_4m2_5#101  a_0_5m2_0#102  a_0_5m2_1#103  a_0_5m2_2#104  a_0_5m2_3#105 
 a_0_5m2_4#106  a_0_5m2_5#107  a_1_0m0_0#108  a_1_0m0_1#109  a_1_0m0_2#110 
 a_1_0m0_3#111  a_1_0m0_4#112  a_1_0m0_5#113  a_1_1m0_0#114  a_1_1m0_1#115 
 a_1_1m0_2#116  a_1_1m0_3#117  a_1_1m0_4#118  a_1_1m0_5#119  a_1_2m0_0#120 
 a_1_2m0_1#121  a_1_2m0_2#122  a_1_2m0_3#123  a_1_2m0_4#124  a_1_2m0_5#125 
 a_1_3m0_0#126  a_1_3m0_1#127  a_1_3m0_2#128  a_1_3m0_3#129  a_1_3m0_4#130 
 a_1_3m0_5#131  a_1_4m0_0#132  a_1_4m0_1#133  a_1_4m0_2#134  a_1_4m0_3#135 
 a_1_4m0_4#136  a_1_4m0_5#137  a_1_5m0_0#138  a_1_5m0_1#139  a_1_5m0_2#140 
 a_1_5m0_3#141  a_1_5m0_4#142  a_1_5m0_5#143  a_1_0m1_0#144  a_1_0m1_1#145 
 a_1_0m1_2#146  a_1_0m1_3#147  a_1_0m1_4#148  a_1_0m1_5#149  a_1_1m1_0#150 
 a_1_1m1_1#151  a_1_1m1_2#152  a_1_1m1_3#153  a_1_1m1_4#154  a_1_1m1_5#155 
 a_1_2m1_0#156  a_1_2m1_1#157  a_1_2m1_2#158  a_1_2m1_3#159  a_1_2m1_4#160 
 a_1_2m1_5#161  a_1_3m1_0#162  a_1_3m1_1#163  a_1_3m1_2#164  a_1_3m1_3#165 
 a_1_3m1_4#166  a_1_3m1_5#167  a_1_4m1_0#168  a_1_4m1_1#169  a_1_4m1_2#170 
 a_1_4m1_3#171  a_1_4m1_4#172  a_1_4m1_5#173  a_1_5m1_0#174  a_1_5m1_1#175 
 a_1_5m1_2#176  a_1_5m1_3#177  a_1_5m1_4#178  a_1_5m1_5#179  a_1_0m2_0#180 
 a_1_0m2_1#181  a_1_0m2_2#182  a_1_0m2_3#183  a_1_0m2_4#184  a_1_0m2_5#185 
 a_1_1m2_0#186  a_1_1m2_1#187  a_1_1m2_2#188  a_1_1m2_3#189  a_1_1m2_4#190 
 a_1_1m2_5#191  a_1_2m2_0#192  a_1_2m2_1#193  a_1_2m2_2#194  a_1_2m2_3#195 
 a_1_2m2_4#196  a_1_2m2_5#197  a_1_3m2_0#198  a_1_3m2_1#199  a_1_3m2_2#200 
 a_1_3m2_3#201  a_1_3m2_4#202  a_1_3m2_5#203  a_1_4m2_0#204  a_1_4m2_1#205 
 a_1_4m2_2#206  a_1_4m2_3#207  a_1_4m2_4#208  a_1_4m2_5#209  a_1_5m2_0#210 
 a_1_5m2_1#211  a_1_5m2_2#212  a_1_5m2_3#213  a_1_5m2_4#214  a_1_5m2_5#215 
 a_2_0m0_0#216  a_2_0m0_1#217  a_2_0m0_2#218  a_2_0m0_3#219  a_2_0m0_4#220 
 a_2_0m0_5#221  a_2_1m0_0#222  a_2_1m0_1#223  a_2_1m0_2#224  a_2_1m0_3#225 
 a_2_1m0_4#226  a_2_1m0_5#227  a_2_2m0_0#228  a_2_2m0_1#229  a_2_2m0_2#230 
 a_2_2m0_3#231  a_2_2m0_4#232  a_2_2m0_5#233  a_2_3m0_0#234  a_2_3m0_1#235 
 a_2_3m0_2#236  a_2_3m0_3#237  a_2_3m0_4#238  a_2_3m0_5#239  a_2_4m0_0#240 
 a_2_4m0_1#241  a_2_4m0_2#242  a_2_4m0_3#243  a_2_4m0_4#244  a_2_4m0_5#245 
 a_2_5m0_0#246  a_2_5m0_1#247  a_2_5m0_2#248  a_2_5m0_3#249  a_2_5m0_4#250 
 a_2_5m0_5#251  a_2_0m1_0#252  a_2_0m1_1#253  a_2_0m1_2#254  a_2_0m1_3#255 
 a_2_0m1_4#256  a_2_0m1_5#257  a_2_1m1_0#258  a_2_1m1_1#259  a_2_1m1_2#260 
 a_2_1m1_3#261  a_2_1m1_4#262  a_2_1m1_5#263  a_2_2m1_0#264  a_2_2m1_1#265 
 a_2_2m1_2#266  a_2_2m1_3#267  a_2_2m1_4#268  a_2_2m1_5#269  a_2_3m1_0#270 
 a_2_3m1_1#271  a_2_3m1_2#272  a_2_3m1_3#273  a_2_3m1_4#274  a_2_3m1_5#275 
 a_2_4m1_0#276  a_2_4m1_1#277  a_2_4m1_2#278  a_2_4m1_3#279  a_2_4m1_4#280 
 a_2_4m1_5#281  a_2_5m1_0#282  a_2_5m1_1#283  a_2_5m1_2#284  a_2_5m1_3#285 
 a_2_5m1_4#286  a_2_5m1_5#287  a_2_0m2_0#288  a_2_0m2_1#289  a_2_0m2_2#290 
 a_2_0m2_3#291  a_2_0m2_4#292  a_2_0m2_5#293  a_2_1m2_0#294  a_2_1m2_1#295 
 a_2_1m2_2#296  a_2_1m2_3#297  a_2_1m2_4#298  a_2_1m2_5#299  a_2_2m2_0#300 
 a_2_2m2_1#301  a_2_2m2_2#302  a_2_2m2_3#303  a_2_2m2_4#304  a_2_2m2_5#305 
 a_2_3m2_0#306  a_2_3m2_1#307  a_2_3m2_2#308  a_2_3m2_3#309  a_2_3m2_4#310 
 a_2_3m2_5#311  a_2_4m2_0#312  a_2_4m2_1#313  a_2_4m2_2#314  a_2_4m2_3#315 
 a_2_4m2_4#316  a_2_4m2_5#317  a_2_5m2_0#318  a_2_5m2_1#319  a_2_5m2_2#320 
 a_2_5m2_3#321  a_2_5m2_4#322  a_2_5m2_5#323  a_0_0#324  a_0_1#325  a_0_2#326 
 a_0_3#327  a_0_4#328  a_0_5#329  a_1_0#330  a_1_1#331  a_1_2#332  a_1_3#333 
 a_1_4#334  a_1_5#335  a_2_0#336  a_2_1#337  a_2_2#338  a_2_3#339  a_2_4#340 
 a_2_5#341 
End
